42950972539579088255014,15,1,2,09,15,1,2,07,10,1,2,012,8,1,2,08,1,1,2,07,12,1,2,014,8,1,2,010,14,1,2,013,5,1,2,09,7,1,2,02,15,1,2,05,6,1,2,08,14,1,2,02,6,1,2,02,15,1,2,011,7,1,2,06,15,1,2,08,6,1,2,03,12,1,2,012,7,1,2,015,9,1,2,01,8,1,2,02,11,1,2,04,14,1,2,014,2,1,2,013,1,1,2,05,1,1,2,09,13,1,2,06,12,1,2,04,13,1,2,04,12,1,2,01,5,1,2,05,5,1,2,08,7,1,2,011,15,1,2,012,13,1,2,09,2,1,2,01,7,1,2,02,9,1,2,012,3,1,2,013,10,1,2,09,12,1,2,011,9,1,2,011,3,1,2,014,2,1,2,03,11,1,2,09,14,1,2,07,3,1,2,011,12,1,2,010,6,1,2,0